; PUSH cw_1 PUSH cw_4 PUSH cw_3 CALLDATALOAD SWAP2 POP => PUSH cw_3 CALLDATALOAD PUSH cw_4
(set-option :produce-proofs true)
; 
(set-info :status unknown)
(declare-fun storage_t ((_ BitVec 256) (_ BitVec 256) (_ BitVec 256) (_ BitVec 256) Int (_ BitVec 256)) (_ BitVec 256))
(declare-fun w_3 () (_ BitVec 256))
(declare-fun w_4 () (_ BitVec 256))
(declare-fun w_1 () (_ BitVec 256))
(declare-fun storage_s ((_ BitVec 256) (_ BitVec 256) (_ BitVec 256) (_ BitVec 256) Int (_ BitVec 256)) (_ BitVec 256))
(declare-fun exc_halt_t (Int) Bool)
(declare-fun exc_halt_s (Int) Bool)
(declare-fun stack_t ((_ BitVec 256) (_ BitVec 256) (_ BitVec 256) (_ BitVec 256) Int (_ BitVec 6)) (_ BitVec 256))
(declare-fun stack_s ((_ BitVec 256) (_ BitVec 256) (_ BitVec 256) (_ BitVec 256) Int (_ BitVec 6)) (_ BitVec 256))
(declare-fun sc_t (Int) (_ BitVec 6))
(declare-fun sc_s (Int) (_ BitVec 6))
(declare-fun used_gas_t ((_ BitVec 256) (_ BitVec 256) (_ BitVec 256) (_ BitVec 256) Int) Int)
(declare-fun used_gas_s ((_ BitVec 256) (_ BitVec 256) (_ BitVec 256) (_ BitVec 256) Int) Int)
(declare-fun f_CALLDATALOAD ((_ BitVec 256) (_ BitVec 256) (_ BitVec 256) (_ BitVec 256) (_ BitVec 256)) (_ BitVec 256))
(assert
 (exists ((x_CALLDATALOAD_0 (_ BitVec 256)) )(let (($x10624 (forall ((w (_ BitVec 256)) )(let ((?x5128 (storage_t w_1 w_4 w_3 x_CALLDATALOAD_0 3 w)))
 (let ((?x11445 (storage_s w_1 w_4 w_3 x_CALLDATALOAD_0 6 w)))
 (= ?x11445 ?x5128))))
 ))
 (let (($x3614 (exc_halt_t 3)))
 (let (($x772 (exc_halt_s 6)))
 (let (($x4578 (= $x772 $x3614)))
 (let (($x1383 (forall ((n (_ BitVec 6)) )(let ((?x5686 (stack_t w_1 w_4 w_3 x_CALLDATALOAD_0 3 n)))
 (let ((?x2965 (stack_s w_1 w_4 w_3 x_CALLDATALOAD_0 6 n)))
 (let (($x10456 (= ?x2965 ?x5686)))
 (let ((?x11304 (sc_t 3)))
 (let (($x484 (bvsle ?x11304 n)))
 (or $x484 $x10456)))))))
 ))
 (let ((?x11304 (sc_t 3)))
 (let ((?x926 (sc_s 6)))
 (let (($x9055 (= ?x926 ?x11304)))
 (let ((?x8367 (used_gas_t w_1 w_4 w_3 x_CALLDATALOAD_0 0)))
 (let ((?x6737 (used_gas_s w_1 w_4 w_3 x_CALLDATALOAD_0 0)))
 (let (($x9196 (= ?x6737 ?x8367)))
 (let (($x11055 (forall ((w (_ BitVec 256)) )(let ((?x11826 (storage_t w_1 w_4 w_3 x_CALLDATALOAD_0 0 w)))
 (let ((?x11912 (storage_s w_1 w_4 w_3 x_CALLDATALOAD_0 0 w)))
 (= ?x11912 ?x11826))))
 ))
 (let (($x56 (exc_halt_t 0)))
 (let (($x57 (exc_halt_s 0)))
 (let (($x58 (= $x57 $x56)))
 (let (($x6029 (forall ((n (_ BitVec 6)) )(let ((?x63 (sc_t 0)))
 (let (($x7673 (bvsle ?x63 n)))
 (let ((?x8626 (stack_t w_1 w_4 w_3 x_CALLDATALOAD_0 0 n)))
 (let ((?x10946 (stack_s w_1 w_4 w_3 x_CALLDATALOAD_0 0 n)))
 (let (($x4238 (= ?x10946 ?x8626)))
 (or $x4238 $x7673)))))))
 ))
 (let ((?x63 (sc_t 0)))
 (let ((?x72 (sc_s 0)))
 (let (($x73 (= ?x72 ?x63)))
 (let (($x3470 (exc_halt_t 2)))
 (let (($x8158 (or $x3470 (not (= ((_ extract 6 6) (bvadd (_ bv1 7) (concat (_ bv0 1) (sc_t 2)))) (_ bv0 1))))))
 (let (($x3096 (forall ((w (_ BitVec 256)) )(let ((?x1052 (storage_t w_1 w_4 w_3 x_CALLDATALOAD_0 2 w)))
 (let ((?x5128 (storage_t w_1 w_4 w_3 x_CALLDATALOAD_0 3 w)))
 (= ?x5128 ?x1052))))
 ))
 (let (($x5586 (forall ((n (_ BitVec 6)) )(let ((?x1268 (stack_t w_1 w_4 w_3 x_CALLDATALOAD_0 2 n)))
 (let ((?x5686 (stack_t w_1 w_4 w_3 x_CALLDATALOAD_0 3 n)))
 (or (= ?x5686 ?x1268) (bvsle (sc_t 2) n)))))
 ))
 (let (($x8313 (= (used_gas_t w_1 w_4 w_3 x_CALLDATALOAD_0 3) (+ 3 (used_gas_t w_1 w_4 w_3 x_CALLDATALOAD_0 2)))))
 (let (($x3799 (= $x3470 (or (exc_halt_t 1) (not (bvsle (_ bv0 6) (bvadd (_ bv63 6) (sc_t 1))))))))
 (let (($x7036 (forall ((w (_ BitVec 256)) )(let ((?x6963 (storage_t w_1 w_4 w_3 x_CALLDATALOAD_0 1 w)))
 (let ((?x1052 (storage_t w_1 w_4 w_3 x_CALLDATALOAD_0 2 w)))
 (= ?x1052 ?x6963))))
 ))
 (let (($x5833 (forall ((n (_ BitVec 6)) )(let ((?x9961 (stack_t w_1 w_4 w_3 x_CALLDATALOAD_0 1 n)))
 (let ((?x1268 (stack_t w_1 w_4 w_3 x_CALLDATALOAD_0 2 n)))
 (or (bvsle (bvadd (_ bv63 6) (sc_t 1)) n) (= ?x1268 ?x9961)))))
 ))
 (let ((?x1498 (used_gas_t w_1 w_4 w_3 x_CALLDATALOAD_0 2)))
 (let ((?x6354 (f_CALLDATALOAD w_1 w_4 w_3 x_CALLDATALOAD_0 (stack_t w_1 w_4 w_3 x_CALLDATALOAD_0 1 (bvadd (_ bv63 6) (sc_t 1))))))
 (let (($x3187 (= (stack_t w_1 w_4 w_3 x_CALLDATALOAD_0 2 (bvadd (_ bv63 6) (sc_t 2))) ?x6354)))
 (let (($x8377 (exc_halt_t 1)))
 (let (($x4983 (= $x8377 (or $x56 (not (= ((_ extract 6 6) (bvadd (_ bv1 7) (concat (_ bv0 1) ?x63))) (_ bv0 1)))))))
 (let (($x9678 (forall ((w (_ BitVec 256)) )(let ((?x11826 (storage_t w_1 w_4 w_3 x_CALLDATALOAD_0 0 w)))
 (let ((?x6963 (storage_t w_1 w_4 w_3 x_CALLDATALOAD_0 1 w)))
 (= ?x6963 ?x11826))))
 ))
 (let (($x2669 (forall ((n (_ BitVec 6)) )(let ((?x63 (sc_t 0)))
 (let (($x7673 (bvsle ?x63 n)))
 (let ((?x8626 (stack_t w_1 w_4 w_3 x_CALLDATALOAD_0 0 n)))
 (let ((?x9961 (stack_t w_1 w_4 w_3 x_CALLDATALOAD_0 1 n)))
 (or (= ?x9961 ?x8626) $x7673))))))
 ))
 (let ((?x7154 (sc_t 1)))
 (let (($x3228 (= ?x7154 (bvadd (_ bv1 6) ?x63))))
 (let (($x2536 (= $x772 (or (exc_halt_s 5) (not (bvsle (_ bv0 6) (bvadd (_ bv63 6) (sc_s 5))))))))
 (let (($x5944 (forall ((w (_ BitVec 256)) )(let ((?x9032 (storage_s w_1 w_4 w_3 x_CALLDATALOAD_0 5 w)))
 (let ((?x11445 (storage_s w_1 w_4 w_3 x_CALLDATALOAD_0 6 w)))
 (= ?x11445 ?x9032))))
 ))
 (let (($x8775 (forall ((n (_ BitVec 6)) )(let ((?x5382 (stack_s w_1 w_4 w_3 x_CALLDATALOAD_0 5 n)))
 (let ((?x2965 (stack_s w_1 w_4 w_3 x_CALLDATALOAD_0 6 n)))
 (or (= ?x2965 ?x5382) (bvsle (bvadd (_ bv63 6) (sc_s 5)) n)))))
 ))
 (let (($x6164 (= (used_gas_s w_1 w_4 w_3 x_CALLDATALOAD_0 6) (+ 2 (used_gas_s w_1 w_4 w_3 x_CALLDATALOAD_0 5)))))
 (let (($x11317 (exc_halt_s 5)))
 (let (($x12004 (= $x11317 (or (exc_halt_s 4) (not (bvsle (_ bv0 6) (bvadd (_ bv61 6) (sc_s 4))))))))
 (let (($x2220 (forall ((w (_ BitVec 256)) )(let ((?x7039 (storage_s w_1 w_4 w_3 x_CALLDATALOAD_0 4 w)))
 (let ((?x9032 (storage_s w_1 w_4 w_3 x_CALLDATALOAD_0 5 w)))
 (= ?x9032 ?x7039))))
 ))
 (let (($x7017 (forall ((n (_ BitVec 6)) )(let ((?x1771 (stack_s w_1 w_4 w_3 x_CALLDATALOAD_0 4 n)))
 (let ((?x5382 (stack_s w_1 w_4 w_3 x_CALLDATALOAD_0 5 n)))
 (or (= ?x5382 ?x1771) (bvsle (bvadd (_ bv61 6) (sc_s 4)) n)))))
 ))
 (let ((?x9202 (used_gas_s w_1 w_4 w_3 x_CALLDATALOAD_0 5)))
 (let (($x11512 (= (stack_s w_1 w_4 w_3 x_CALLDATALOAD_0 5 (bvadd (_ bv62 6) (sc_s 5))) (stack_s w_1 w_4 w_3 x_CALLDATALOAD_0 4 (bvadd (_ bv62 6) (sc_s 4))))))
 (let ((?x4305 (sc_s 4)))
 (let ((?x11664 (bvadd (_ bv63 6) ?x4305)))
 (let ((?x11116 (stack_s w_1 w_4 w_3 x_CALLDATALOAD_0 4 ?x11664)))
 (let (($x10918 (= (stack_s w_1 w_4 w_3 x_CALLDATALOAD_0 5 (bvadd (_ bv61 6) (sc_s 5))) ?x11116)))
 (let (($x9501 (= (stack_s w_1 w_4 w_3 x_CALLDATALOAD_0 5 (bvadd (_ bv63 6) (sc_s 5))) (stack_s w_1 w_4 w_3 x_CALLDATALOAD_0 4 (bvadd (_ bv61 6) ?x4305)))))
 (let (($x7172 (exc_halt_s 4)))
 (let (($x8322 (= $x7172 (or (exc_halt_s 3) (not (bvsle (_ bv0 6) (bvadd (_ bv63 6) (sc_s 3))))))))
 (let (($x10114 (forall ((w (_ BitVec 256)) )(let ((?x5502 (storage_s w_1 w_4 w_3 x_CALLDATALOAD_0 3 w)))
 (let ((?x7039 (storage_s w_1 w_4 w_3 x_CALLDATALOAD_0 4 w)))
 (= ?x7039 ?x5502))))
 ))
 (let (($x259 (forall ((n (_ BitVec 6)) )(let ((?x7237 (stack_s w_1 w_4 w_3 x_CALLDATALOAD_0 3 n)))
 (let ((?x1771 (stack_s w_1 w_4 w_3 x_CALLDATALOAD_0 4 n)))
 (or (= ?x1771 ?x7237) (bvsle (bvadd (_ bv63 6) (sc_s 3)) n)))))
 ))
 (let ((?x275 (sc_s 3)))
 (let (($x4997 (= ?x4305 ?x275)))
 (let ((?x143 (used_gas_s w_1 w_4 w_3 x_CALLDATALOAD_0 4)))
 (let ((?x256 (f_CALLDATALOAD w_1 w_4 w_3 x_CALLDATALOAD_0 (stack_s w_1 w_4 w_3 x_CALLDATALOAD_0 3 (bvadd (_ bv63 6) ?x275)))))
 (let (($x247 (exc_halt_s 2)))
 (let (($x16 (or $x247 (not (= ((_ extract 6 6) (bvadd (_ bv1 7) (concat (_ bv0 1) (sc_s 2)))) (_ bv0 1))))))
 (let (($x292 (exc_halt_s 3)))
 (let (($x2821 (= $x292 $x16)))
 (let (($x1752 (forall ((w (_ BitVec 256)) )(let ((?x10155 (storage_s w_1 w_4 w_3 x_CALLDATALOAD_0 2 w)))
 (let ((?x5502 (storage_s w_1 w_4 w_3 x_CALLDATALOAD_0 3 w)))
 (= ?x5502 ?x10155))))
 ))
 (let (($x347 (forall ((n (_ BitVec 6)) )(let ((?x7893 (stack_s w_1 w_4 w_3 x_CALLDATALOAD_0 2 n)))
 (let ((?x7237 (stack_s w_1 w_4 w_3 x_CALLDATALOAD_0 3 n)))
 (let ((?x218 (sc_s 2)))
 (let (($x680 (bvsle ?x218 n)))
 (or $x680 (= ?x7237 ?x7893)))))))
 ))
 (let (($x7369 (= ?x275 (bvadd (_ bv1 6) (sc_s 2)))))
 (let ((?x8177 (used_gas_s w_1 w_4 w_3 x_CALLDATALOAD_0 3)))
 (let (($x189 (exc_halt_s 1)))
 (let (($x2966 (or $x189 (not (= ((_ extract 6 6) (bvadd (_ bv1 7) (concat (_ bv0 1) (sc_s 1)))) (_ bv0 1))))))
 (let (($x1877 (forall ((w (_ BitVec 256)) )(let ((?x6235 (storage_s w_1 w_4 w_3 x_CALLDATALOAD_0 1 w)))
 (let ((?x10155 (storage_s w_1 w_4 w_3 x_CALLDATALOAD_0 2 w)))
 (= ?x10155 ?x6235))))
 ))
 (let (($x9034 (forall ((n (_ BitVec 6)) )(let ((?x9669 (stack_s w_1 w_4 w_3 x_CALLDATALOAD_0 1 n)))
 (let ((?x7893 (stack_s w_1 w_4 w_3 x_CALLDATALOAD_0 2 n)))
 (or (= ?x7893 ?x9669) (bvsle (sc_s 1) n)))))
 ))
 (let ((?x1459 (used_gas_s w_1 w_4 w_3 x_CALLDATALOAD_0 2)))
 (let (($x10804 (= $x189 (or $x57 (not (= ((_ extract 6 6) (bvadd (_ bv1 7) (concat (_ bv0 1) ?x72))) (_ bv0 1)))))))
 (let (($x678 (forall ((w (_ BitVec 256)) )(let ((?x11912 (storage_s w_1 w_4 w_3 x_CALLDATALOAD_0 0 w)))
 (let ((?x6235 (storage_s w_1 w_4 w_3 x_CALLDATALOAD_0 1 w)))
 (= ?x6235 ?x11912))))
 ))
 (let (($x4590 (forall ((n (_ BitVec 6)) )(let ((?x10946 (stack_s w_1 w_4 w_3 x_CALLDATALOAD_0 0 n)))
 (let ((?x9669 (stack_s w_1 w_4 w_3 x_CALLDATALOAD_0 1 n)))
 (let ((?x72 (sc_s 0)))
 (let (($x3419 (bvsle ?x72 n)))
 (or $x3419 (= ?x9669 ?x10946)))))))
 ))
 (let ((?x154 (sc_s 1)))
 (let (($x8655 (= ?x154 (bvadd (_ bv1 6) ?x72))))
 (let (($x8299 (forall ((w0 (_ BitVec 256)) )(let (($x740 (= (stack_s w_1 w_4 w_3 x_CALLDATALOAD_0 3 (bvadd (_ bv63 6) (sc_s 3))) w0)))
 (let ((?x9309 (f_CALLDATALOAD w_1 w_4 w_3 x_CALLDATALOAD_0 w0)))
 (= ?x9309 (ite $x740 x_CALLDATALOAD_0 (_ bv0 256))))))
 ))
 (let (($x5683 (forall ((w (_ BitVec 256)) )(let ((?x11912 (storage_s w_1 w_4 w_3 x_CALLDATALOAD_0 0 w)))
 (= ?x11912 (_ bv0 256))))
 ))
 (let (($x8096 (= ?x6737 0)))
 (let (($x7303 (not $x57)))
 (let (($x8325 (= ?x72 (_ bv0 6))))
 (and $x8325 $x7303 $x8096 $x5683 $x8299 (= (stack_s w_1 w_4 w_3 x_CALLDATALOAD_0 1 ?x72) w_1) (= (used_gas_s w_1 w_4 w_3 x_CALLDATALOAD_0 1) (+ 3 ?x6737)) $x8655 $x4590 $x678 $x10804 (= (stack_s w_1 w_4 w_3 x_CALLDATALOAD_0 2 ?x154) w_4) (= ?x1459 (+ 3 (used_gas_s w_1 w_4 w_3 x_CALLDATALOAD_0 1))) (= (sc_s 2) (bvadd (_ bv1 6) ?x154)) $x9034 $x1877 (= $x247 $x2966) (= (stack_s w_1 w_4 w_3 x_CALLDATALOAD_0 3 (sc_s 2)) w_3) (= ?x8177 (+ 3 ?x1459)) $x7369 $x347 $x1752 $x2821 (= ?x11116 ?x256) (= ?x143 (+ 3 ?x8177)) $x4997 $x259 $x10114 $x8322 $x9501 $x10918 $x11512 (= ?x9202 (+ 3 ?x143)) (= (sc_s 5) ?x4305) $x7017 $x2220 $x12004 $x6164 (= ?x926 (bvadd (_ bv63 6) (sc_s 5))) $x8775 $x5944 $x2536 (= (stack_t w_1 w_4 w_3 x_CALLDATALOAD_0 1 ?x63) w_3) (= (used_gas_t w_1 w_4 w_3 x_CALLDATALOAD_0 1) (+ 3 ?x8367)) $x3228 $x2669 $x9678 $x4983 $x3187 (= ?x1498 (+ 3 (used_gas_t w_1 w_4 w_3 x_CALLDATALOAD_0 1))) (= (sc_t 2) ?x7154) $x5833 $x7036 $x3799 (= (stack_t w_1 w_4 w_3 x_CALLDATALOAD_0 3 (sc_t 2)) w_4) $x8313 (= ?x11304 (bvadd (_ bv1 6) (sc_t 2))) $x5586 $x3096 (= $x3614 $x8158) $x73 $x6029 $x58 $x11055 $x9196 (not (and $x9055 $x1383 $x4578 $x10624))))))))))))))))))))))))))))))))))))))))))))))))))))))))))))))))))))))))))))))))))))))
 )
(check-sat)
(get-proof)
